p tw 420 6301 7 
1 8 
1 21 
2 9 
2 10 
2 22 
3 7 
3 10 
3 71 
4 8 
4 9 
4 72 
5 7 
5 9 
5 401 
6 8 
6 10 
6 402 
11 17 
11 18 
11 321 
12 19 
12 20 
12 322 
13 17 
13 20 
13 331 
14 18 
14 19 
14 332 
15 17 
15 19 
15 391 
16 18 
16 20 
16 392 
21 27 
21 28 
22 29 
22 30 
23 27 
23 30 
23 51 
24 28 
24 29 
24 52 
25 27 
25 29 
25 111 
26 28 
26 30 
26 112 
31 37 
31 38 
31 61 
32 39 
32 40 
32 62 
33 37 
33 40 
33 161 
34 38 
34 39 
34 162 
35 37 
35 39 
35 311 
36 38 
36 40 
36 312 
41 47 
41 48 
41 171 
42 49 
42 50 
42 172 
43 47 
43 50 
43 241 
44 48 
44 49 
44 242 
45 47 
45 49 
45 323 
46 48 
46 50 
46 324 
51 57 
51 58 
52 59 
52 60 
53 57 
53 60 
53 181 
54 58 
54 59 
54 182 
55 57 
55 59 
55 333 
56 58 
56 60 
56 334 
61 67 
61 68 
62 69 
62 70 
63 67 
63 70 
63 221 
64 68 
64 69 
64 222 
65 67 
65 69 
65 243 
66 68 
66 70 
66 244 
71 77 
71 78 
72 79 
72 80 
73 77 
73 80 
73 151 
74 78 
74 79 
74 152 
75 77 
75 79 
75 173 
76 78 
76 80 
76 174 
81 87 
81 88 
81 191 
82 89 
82 90 
82 192 
83 87 
83 90 
83 381 
84 88 
84 89 
84 382 
85 87 
85 89 
85 411 
86 88 
86 90 
86 412 
91 97 
91 98 
91 101 
92 99 
92 100 
92 102 
93 97 
93 100 
93 301 
94 98 
94 99 
94 302 
95 97 
95 99 
95 371 
96 98 
96 100 
96 372 
101 107 
101 108 
102 109 
102 110 
103 107 
103 110 
103 121 
104 108 
104 109 
104 122 
105 107 
105 109 
105 183 
106 108 
106 110 
106 184 
111 117 
111 118 
112 119 
112 120 
113 117 
113 120 
113 153 
114 118 
114 119 
114 154 
115 117 
115 119 
115 193 
116 118 
116 120 
116 194 
121 127 
121 128 
122 129 
122 130 
123 127 
123 130 
123 231 
124 128 
124 129 
124 232 
125 127 
125 129 
125 341 
126 128 
126 130 
126 342 
131 137 
131 138 
131 211 
132 139 
132 140 
132 212 
133 137 
133 140 
133 233 
134 138 
134 139 
134 234 
135 137 
135 139 
135 335 
136 138 
136 140 
136 336 
141 147 
141 148 
141 261 
142 149 
142 150 
142 262 
143 147 
143 150 
143 361 
144 148 
144 149 
144 362 
145 147 
145 149 
145 403 
146 148 
146 150 
146 404 
151 157 
151 158 
152 159 
152 160 
153 157 
153 160 
154 158 
154 159 
155 157 
155 159 
155 325 
156 158 
156 160 
156 326 
161 167 
161 168 
162 169 
162 170 
163 167 
163 170 
163 373 
164 168 
164 169 
164 374 
165 167 
165 169 
165 383 
166 168 
166 170 
166 384 
171 177 
171 178 
172 179 
172 180 
173 177 
173 180 
174 178 
174 179 
175 177 
175 179 
175 201 
176 178 
176 180 
176 202 
181 187 
181 188 
182 189 
182 190 
183 187 
183 190 
184 188 
184 189 
185 187 
185 189 
185 195 
186 188 
186 190 
186 196 
191 197 
191 198 
192 199 
192 200 
193 197 
193 200 
194 198 
194 199 
195 197 
195 199 
196 198 
196 200 
201 207 
201 208 
202 209 
202 210 
203 207 
203 210 
203 281 
204 208 
204 209 
204 282 
205 207 
205 209 
205 363 
206 208 
206 210 
206 364 
211 217 
211 218 
212 219 
212 220 
213 217 
213 220 
213 245 
214 218 
214 219 
214 246 
215 217 
215 219 
215 263 
216 218 
216 220 
216 264 
221 227 
221 228 
222 229 
222 230 
223 227 
223 230 
223 271 
224 228 
224 229 
224 272 
225 227 
225 229 
225 351 
226 228 
226 230 
226 352 
231 237 
231 238 
232 239 
232 240 
233 237 
233 240 
234 238 
234 239 
235 237 
235 239 
235 313 
236 238 
236 240 
236 314 
241 247 
241 248 
242 249 
242 250 
243 247 
243 250 
244 248 
244 249 
245 247 
245 249 
246 248 
246 250 
251 257 
251 258 
251 265 
252 259 
252 260 
252 266 
253 257 
253 260 
253 273 
254 258 
254 259 
254 274 
255 257 
255 259 
255 353 
256 258 
256 260 
256 354 
261 267 
261 268 
262 269 
262 270 
263 267 
263 270 
264 268 
264 269 
265 267 
265 269 
266 268 
266 270 
271 277 
271 278 
272 279 
272 280 
273 277 
273 280 
274 278 
274 279 
275 277 
275 279 
275 343 
276 278 
276 280 
276 344 
281 287 
281 288 
282 289 
282 290 
283 287 
283 290 
283 291 
284 288 
284 289 
284 292 
285 287 
285 289 
285 413 
286 288 
286 290 
286 414 
291 297 
291 298 
292 299 
292 300 
293 297 
293 300 
293 385 
294 298 
294 299 
294 386 
295 297 
295 299 
295 393 
296 298 
296 300 
296 394 
301 307 
301 308 
302 309 
302 310 
303 307 
303 310 
303 375 
304 308 
304 309 
304 376 
305 307 
305 309 
305 405 
306 308 
306 310 
306 406 
311 317 
311 318 
312 319 
312 320 
313 317 
313 320 
314 318 
314 319 
315 317 
315 319 
315 345 
316 318 
316 320 
316 346 
321 327 
321 328 
322 329 
322 330 
323 327 
323 330 
324 328 
324 329 
325 327 
325 329 
326 328 
326 330 
331 337 
331 338 
332 339 
332 340 
333 337 
333 340 
334 338 
334 339 
335 337 
335 339 
336 338 
336 340 
341 347 
341 348 
342 349 
342 350 
343 347 
343 350 
344 348 
344 349 
345 347 
345 349 
346 348 
346 350 
351 357 
351 358 
352 359 
352 360 
353 357 
353 360 
354 358 
354 359 
355 357 
355 359 
355 415 
356 358 
356 360 
356 416 
361 367 
361 368 
362 369 
362 370 
363 367 
363 370 
364 368 
364 369 
365 367 
365 369 
365 395 
366 368 
366 370 
366 396 
371 377 
371 378 
372 379 
372 380 
373 377 
373 380 
374 378 
374 379 
375 377 
375 379 
376 378 
376 380 
381 387 
381 388 
382 389 
382 390 
383 387 
383 390 
384 388 
384 389 
385 387 
385 389 
386 388 
386 390 
391 397 
391 398 
392 399 
392 400 
393 397 
393 400 
394 398 
394 399 
395 397 
395 399 
396 398 
396 400 
401 407 
401 408 
402 409 
402 410 
403 407 
403 410 
404 408 
404 409 
405 407 
405 409 
406 408 
406 410 
411 417 
411 418 
412 419 
412 420 
413 417 
413 420 
414 418 
414 419 
415 417 
415 419 
416 418 
416 420 
